NAME : GeneratedProblem
COMMENT : SVGCrosshatch
TYPE : TSP
DIMENSION : 28
EDGE_WEIGHT_TYPE : EUC_2D
NODE_COORD_SECTION
1 8000 9000
2 8000 9100
3 8100 9000
4 8100 9100
5 8100 9200
6 8100 9300
7 8200 9000
8 8200 9100
9 8200 9200
10 8200 9300
11 8200 9400
12 8200 9500
13 8300 9000
14 8300 9100
15 8300 9200
16 8300 9300
17 8300 9400
18 8300 9500
19 8300 9600
20 8400 9000
21 8400 9100
22 8400 9200
23 8400 9300
24 8400 9400
25 8500 9000
26 8500 9100
27 8500 9200
28 8600 9000
EOF
